solution status: optimal solution found
objective value:                                    0
$_6_y                                              19 	(obj:0)
$_6_z                                              18 	(obj:0)
$_11_y                                             20 	(obj:0)
$_11_z                                             17 	(obj:0)
$_8_y                                              22 	(obj:0)
$_8_z                                              18 	(obj:0)
$_26_y                                             23 	(obj:0)
$_26_z                                             17 	(obj:0)
$_10_y                                             22 	(obj:0)
$_10_z                                             17 	(obj:0)
$_20_y                                             19 	(obj:0)
$_20_z                                             17 	(obj:0)
$_24_y                                             20 	(obj:0)
$_24_z                                             18 	(obj:0)
$_33_y                                             23 	(obj:0)
$_33_z                                             18 	(obj:0)
$_3__0_y                                           23 	(obj:0)
$_3__0_z                                           22 	(obj:0)
$_5__0_y                                           22 	(obj:0)
$_5__0_z                                           19 	(obj:0)
$_13_y                                             21 	(obj:0)
$_13_z                                             17 	(obj:0)
